/*********************************************
 * OPL 12.6.0.0 Data
 * Author: Adrian Rodriguez Bazaga, Pau Rodriguez Esmerats
 * Creation Date: 01/12/2017 at 09:09:15
 *********************************************/

nNurses=637;
maxConsec=2;
maxPresence=7;
maxHours=5;
minHours=1;
demand= [121 119 171 178 119 171 178 130 121 79 14 26 18 32 21 21 13 10 7 6 104 203 102 159  ];
